100 8
469 703
778 647
947 815
690 167
786 449
612 718
606 654
723 487
890 342
982 968
810 542
615 575
870 442
234 205
821 341
680 241
600 624
868 378
876 307
253 156
805 969
818 188
795 348
257 198
906 344
587 276
823 171
515 693
892 774
212 900
918 689
946 803
685 651
74 852
667 601
831 832
616 716
943 357
374 517
635 192
476 699
554 334
838 724
633 592
820 270
875 427
143 794
386 652
533 690
298 466
790 518
375 683
237 537
773 267
784 453
270 372
766 402
562 666
439 649
832 439
749 631
618 429
607 779
46 837
686 540
767 354
594 207
140 982
269 766
503 637
912 450
815 306
689 231
878 773
896 675
665 615
907 630
676 226
613 653
204 667
338 710
613 204
336 513
262 738
513 861
761 372
674 542
84 859
652 729
390 870
786 239
217 95
687 421
274 399
893 405
178 647
688 616
488 820
820 949
492 702
